NAME /Users/henri/Research/solvers/instances/idol-instances/robust/collection/cbp_Subramanyam_et_al_2020/CapBud_N5_16/models/uncertain_technology_matrix/
ROWS
 N  OBJ
 L  capacity
 L  c_335
 L  c_336
 L  c_337
 L  c_338
 L  c_339
COLUMNS
    MARKER    'MARKER'                 'INTORG'
    x_0        OBJ        3.8832
    x_0        c_335      1
    x_0        capacity   0.776639
    x_1        OBJ        1.60394
    x_1        c_336      1
    x_1        capacity   0.320787
    x_2        OBJ        3.50207
    x_2        c_337      1
    x_2        capacity   0.700415
    x_3        OBJ        0.956199
    x_3        c_338      1
    x_3        capacity   0.19124
    x_4        OBJ        8.71103
    x_4        c_339      1
    x_4        capacity   1.74221
    y_0        OBJ        3.10656
    y_0        c_335      1
    y_0        capacity   0.776639
    y_1        OBJ        1.28315
    y_1        c_336      1
    y_1        capacity   0.320787
    y_2        OBJ        2.80166
    y_2        c_337      1
    y_2        capacity   0.700415
    y_3        OBJ        0.764959
    y_3        c_338      1
    y_3        capacity   0.19124
    y_4        OBJ        6.96882
    y_4        c_339      1
    y_4        capacity   1.74221
    MARKER    'MARKER'                 'INTEND'
RHS
    RHS       capacity   9.32821
    RHS       c_335      1
    RHS       c_336      1
    RHS       c_337      1
    RHS       c_338      1
    RHS       c_339      1
BOUNDS
 LI BND       x_0        0
 UI BND       x_0        1
 LI BND       x_1        0
 UI BND       x_1        1
 LI BND       x_2        0
 UI BND       x_2        1
 LI BND       x_3        0
 UI BND       x_3        1
 LI BND       x_4        0
 UI BND       x_4        1
 LI BND       y_0        0
 UI BND       y_0        1
 LI BND       y_1        0
 UI BND       y_1        1
 LI BND       y_2        0
 UI BND       y_2        1
 LI BND       y_3        0
 UI BND       y_3        1
 LI BND       y_4        0
 UI BND       y_4        1
ENDATA
